proyfinal/src/viki/013/experimentInOfficeAgust.take6.output/be8753b2-8de3-4592-9adf-1813cdd9c854.als.dat
{'cnf.clauses': '118081',
 'cnf.totvars': '69608',
 'conflict literals': '25',
 'conflicts': '14',
 'decisions': '4669',
 'memused.mb': '16.65',
 'outcome': 'UNSAT',
 'propagations': '26948',
 'restarts': '1',
 'solver.msecs': 35,
 'task.msecs': 79}
