proyfinal/src/viki/013/experimentInOfficeAgust.take6.output/be8753b2-8de3-4592-9adf-1813cdd9c854.als.out
Reading from standard input... Use '--help' for help.
============================[ Problem Statistics ]=============================
|                                                                             |
|  Number of variables:         69608                                         |
|  Number of clauses:          118081                                         |
|  Parse time:                   0.03 s                                       |
|                                                                             |
============================[ Search Statistics ]==============================
| Conflicts |          ORIGINAL         |          LEARNT          | Progress |
|           |    Vars  Clauses Literals |    Limit  Clauses Lit/Cl |          |
===============================================================================
===============================================================================
restarts              : 1
conflicts             : 14             (399 /sec)
decisions             : 4669           (0.00 % random) (133092 /sec)
propagations          : 26948          (768165 /sec)
conflict literals     : 25             (0.00 % deleted)
Memory used           : 16.65 MB
CPU time              : 0.035081 s

UNSATISFIABLE
